SCIP Status        : problem is solved [optimal solution found]
Total Time         :      18.05
  solving          :      18.04
  presolving       :       0.18 (included in solving)
  reading          :       0.01
  copying          :       0.00 (1 #copies) (minimal 0.00, maximal 0.00, average 0.00)
Original Problem   :
  Problem name     : oil2
  Variables        : 936 (2 binary, 0 integer, 0 implicit integer, 934 continuous)
  Constraints      : 926 initial, 926 maximal
  Objective        : minimize, 8 non-zeros (abs.min = 1e-06, abs.max = 1)
Presolved Problem  :
  Problem name     : t_oil2
  Variables        : 894 (2 binary, 0 integer, 0 implicit integer, 892 continuous)
  Constraints      : 405 initial, 405 maximal
  Objective        : minimize, 11 non-zeros (abs.min = 1e-08, abs.max = 10)
  Nonzeros         : 1096 constraint, 2 clique table
Presolvers         :   ExecTime  SetupTime  Calls  FixedVars   AggrVars   ChgTypes  ChgBounds   AddHoles    DelCons    AddCons   ChgSides   ChgCoefs
  boundshift       :       0.00       0.00      0          0          0          0          0          0          0          0          0          0
  convertinttobin  :       0.00       0.00      0          0          0          0          0          0          0          0          0          0
  domcol           :       0.00       0.00      2          0          0          0          0          0          0          0          0          0
  dualagg          :       0.00       0.00      0          0          0          0          0          0          0          0          0          0
  dualcomp         :       0.00       0.00      2          0          0          0          0          0          0          0          0          0
  dualinfer        :       0.00       0.00      0          0          0          0          0          0          0          0          0          0
  dualsparsify     :       0.00       0.00      1          0          0          0          0          0          0          0          0          0
  gateextraction   :       0.00       0.00      0          0          0          0          0          0          0          0          0          0
  implics          :       0.00       0.00     12          0          0          0          0          0          0          0          0          0
  inttobinary      :       0.00       0.00      0          0          0          0          0          0          0          0          0          0
  qpkktref         :       0.00       0.00      0          0          0          0          0          0          0          0          0          0
  redvub           :       0.00       0.00      0          0          0          0          0          0          0          0          0          0
  sparsify         :       0.00       0.00      1          0          0          0          0          0          0          0          0          0
  stuffing         :       0.00       0.00      0          0          0          0          0          0          0          0          0          0
  trivial          :       0.00       0.00     38         24          0          0          0          0          0          0          0          0
  tworowbnd        :       0.00       0.00      0          0          0          0          0          0          0          0          0          0
  dualfix          :       0.00       0.00     38          4          0          0          0          0          0          0          0          0
  genvbounds       :       0.00       0.00      0          0          0          0          0          0          0          0          0          0
  probing          :       0.01       0.00      2          0          0          0        472          0          0          0          0          0
  pseudoobj        :       0.00       0.00      0          0          0          0          0          0          0          0          0          0
  symmetry         :       0.00       0.00      1          0          0          0          0          0          0          0          0          0
  vbounds          :       0.00       0.00      0          0          0          0          0          0          0          0          0          0
  varbound         :       0.00       0.00      5          0          0          0          0          0          0          0          2          2
  setppc           :       0.00       0.00      7          0          0          0          0          0          0          0          0          0
  linear           :       0.01       0.00     50         15        492          0       1068          0        519          0          9         12
  nonlinear        :       0.16       0.01     52          0          0          0        503          0          0          0          0        -14
  benders          :       0.00       0.00      0          0          0          0          0          0          0          0          0          0
  components       :       0.00       0.00      1          0          0          0          0          0          0          0          0          0
  root node        :          -          -      -          2          -          -       2950          -          -          -          -          -
Constraints        :     Number  MaxNumber  #Separate #Propagate    #EnfoLP    #EnfoRelax  #EnfoPS    #Check   #ResProp    Cutoffs    DomReds       Cuts    Applied      Conss   Children
  benderslp        :          0          0          0          0        129          0          0        145          0          0          0          0          0          0          0
  integral         :          0          0          0          0        129          0          0        145          0          0          5          0          0          0          4
  varbound         :         14         14         65        417          0          0          0        131          0          0         18          0          0          0          0
  setppc           :          1          1         65        261          0          0          0         61          0          7          1          0          0          0          0
  linear           :        108        108         65       2154          3          0          0         71          0          4       5907          0          0          0          0
  nonlinear        :        282        282        229       2150        126          0          0         71          0          5      33814      10518       2046          0         62
  benders          :          0          0          0          0          3          0          0          2          0          0          0          0          0          0          0
  countsols        :          0          0          0          0          3          0          0          2          0          0          0          0          0          0          0
  components       :          0          0          0          0          0          0          0          0          0          0          0          0          0          0          0
Constraint Timings :  TotalTime  SetupTime   Separate  Propagate     EnfoLP     EnfoPS     EnfoRelax   Check    ResProp    SB-Prop
  benderslp        :       0.00       0.00       0.00       0.00       0.00       0.00       0.00       0.00       0.00       0.00
  integral         :       0.01       0.00       0.00       0.00       0.01       0.00       0.00       0.00       0.00       0.00
  varbound         :       0.00       0.00       0.00       0.00       0.00       0.00       0.00       0.00       0.00       0.00
  setppc           :       0.00       0.00       0.00       0.00       0.00       0.00       0.00       0.00       0.00       0.00
  linear           :       0.02       0.00       0.00       0.01       0.00       0.00       0.00       0.00       0.00       0.00
  nonlinear        :       4.02       0.01       3.61       0.28       0.11       0.00       0.00       0.01       0.00       0.00
  benders          :       0.00       0.00       0.00       0.00       0.00       0.00       0.00       0.00       0.00       0.00
  countsols        :       0.00       0.00       0.00       0.00       0.00       0.00       0.00       0.00       0.00       0.00
  components       :       0.00       0.00       0.00       0.00       0.00       0.00       0.00       0.00       0.00       0.00
Propagators        : #Propagate   #ResProp    Cutoffs    DomReds
  dualfix          :          8          0          0          0
  genvbounds       :        189          0          0          5
  nlobbt           :          0          0          0          0
  obbt             :          5          0          0          8
  probing          :          0          0          0          0
  pseudoobj        :       1995          0          0        103
  redcost          :         78          0          0          0
  rootredcost      :          4          0          0          7
  symmetry         :          0          0          0          0
  vbounds          :        145          0          0          0
Propagator Timings :  TotalTime  SetupTime   Presolve  Propagate    ResProp    SB-Prop
  dualfix          :       0.00       0.00       0.00       0.00       0.00       0.00
  genvbounds       :       0.00       0.00       0.00       0.00       0.00       0.00
  nlobbt           :       0.00       0.00       0.00       0.00       0.00       0.00
  obbt             :       2.42       0.00       0.00       2.42       0.00       0.00
  probing          :       0.01       0.00       0.01       0.00       0.00       0.00
  pseudoobj        :       0.00       0.00       0.00       0.00       0.00       0.00
  redcost          :       0.00       0.00       0.00       0.00       0.00       0.00
  rootredcost      :       0.00       0.00       0.00       0.00       0.00       0.00
  symmetry         :       0.00       0.00       0.00       0.00       0.00       0.00
  vbounds          :       0.00       0.00       0.00       0.00       0.00       0.00
Conflict Analysis  :       Time      Calls    Success    DomReds  Conflicts   Literals    Reconvs ReconvLits   Dualrays   Nonzeros   LP Iters   (pool size: [--,--])
  propagation      :       0.00          0          0          -          0        0.0          0        0.0          -          -          -
  infeasible LP    :       0.00          3          0          -          0        0.0          0        0.0          0        0.0          0
  bound exceed. LP :       0.00          6          0          -          0        0.0          0        0.0          0        0.0          0
  strong branching :       0.00          0          0          -          0        0.0          0        0.0          -          -          0
  pseudo solution  :       0.00          0          0          -          0        0.0          0        0.0          -          -          -
  applied globally :       0.00          -          -          0          0        0.0          -          -          0          -          -
  applied locally  :          -          -          -          0          0        0.0          -          -          0          -          -
Separators         :   ExecTime  SetupTime      Calls  RootCalls    Cutoffs    DomReds  FoundCuts ViaPoolAdd  DirectAdd    Applied ViaPoolApp  DirectApp      Conss
  cut pool         :       0.00          -        115        110          -          -        220        335          -          -          -          -          -    (maximal pool size:        220)
  aggregation      :       0.15       0.00         64         64          0          0        196        244          0         40         40          0          0
  > cmir           :          -          -          -          -          -          -          -        218          0         37         37          0          -
  > flowcover      :          -          -          -          -          -          -          -         26          0          3          3          0          -
  > knapsackcover  :          -          -          -          -          -          -          -          0          0          0          0          0          -
  cgmip            :       0.00       0.00          0          0          0          0          0          0          0          0          0          0          0
  clique           :       0.00       0.00         64         64          0          0          0          0          0          0          0          0          0
  closecuts        :       0.00       0.00          0          0          0          0          0          0          0          0          0          0          0
  convexproj       :       0.00       0.00          0          0          0          0          0          0          0          0          0          0          0
  disjunctive      :       0.00       0.00          0          0          0          0          0          0          0          0          0          0          0
  eccuts           :       0.00       0.00          0          0          0          0          0          0          0          0          0          0          0
  gauge            :       0.00       0.00          0          0          0          0          0          0          0          0          0          0          0
  gomory           :       0.00       0.00         10         10          0          0         18         82          0          0          0          0          0
  > gomorymi       :          -          -          -          -          -          -          -         82          0          0          0          0          -
  > strongcg       :          -          -          -          -          -          -          -          0          0          0          0          0          -
  impliedbounds    :       0.00       0.00         64         64          0          0          6          9          0          4          4          0          0
  interminor       :       0.00       0.00          0          0          0          0          0          0          0          0          0          0          0
  intobj           :       0.00       0.00          0          0          0          0          0          0          0          0          0          0          0
  mcf              :       0.00       0.00          5          5          0          0          0          0          0          0          0          0          0
  minor            :       0.00       0.00          0          0          0          0          0          0          0          0          0          0          0
  mixing           :       0.00       0.00         70         65          0          0          0          0          0          0          0          0          0
  oddcycle         :       0.00       0.00          0          0          0          0          0          0          0          0          0          0          0
  rapidlearning    :       0.00       0.00          0          0          0          0          0          0          0          0          0          0          0
  rlt              :       0.00       0.00         10         10          0          0          0          0          0          0          0          0          0
  zerohalf         :       0.00       0.00         20         20          0          0          0          0          0          0          0          0          0
Cutselectors       :   ExecTime  SetupTime      Calls  RootCalls   Selected     Forced   Filtered  RootSelec   RootForc   RootFilt 
  hybrid           :       0.01       0.00        164         65        887          0       8736        472          0       6462
Pricers            :   ExecTime  SetupTime      Calls       Vars
  problem variables:       0.00          -          0          0
Branching Rules    :   ExecTime  SetupTime   BranchLP  BranchExt   BranchPS    Cutoffs    DomReds       Cuts      Conss   Children
  allfullstrong    :       0.00       0.00          0          0          0          0          0          0          0          0
  cloud            :       0.00       0.00          0          0          0          0          0          0          0          0
  distribution     :       0.00       0.00          0          0          0          0          0          0          0          0
  fullstrong       :       0.00       0.00          0          0          0          0          0          0          0          0
  inference        :       0.00       0.00          0          0          0          0          0          0          0          0
  leastinf         :       0.00       0.00          0          0          0          0          0          0          0          0
  lookahead        :       0.00       0.00          0          0          0          0          0          0          0          0
  mostinf          :       0.00       0.00          0          0          0          0          0          0          0          0
  multaggr         :       0.00       0.00          0          0          0          0          0          0          0          0
  nodereopt        :       0.00       0.00          0          0          0          0          0          0          0          0
  pscost           :       0.00       0.00          0          0          0          0          0          0          0          0
  random           :       0.00       0.00          0          0          0          0          0          0          0          0
  relpscost        :       0.01       0.00          3          0          0          0          5          0          0          4
  vanillafullstrong:       0.00       0.00          0          0          0          0          0          0          0          0
Primal Heuristics  :   ExecTime  SetupTime      Calls      Found       Best
  LP solutions     :       0.00          -          -          3          3
  relax solutions  :       0.00          -          -          0          0
  pseudo solutions :       0.00          -          -          0          0
  strong branching :       0.00          -          -          0          0
  actconsdiving    :       0.00       0.00          0          0          0
  adaptivediving   :       0.00       0.00          5          0          0
  alns             :       0.03       0.00          1          0          0
  bound            :       0.00       0.00          0          0          0
  clique           :       0.02       0.00          1          0          0
  coefdiving       :       0.00       0.00          0          0          0
  completesol      :       0.00       0.00          0          0          0
  conflictdiving   :       0.00       0.00          0          0          0
  crossover        :       0.00       0.00          0          0          0
  dins             :       0.00       0.00          0          0          0
  distributiondivin:       0.00       0.00          0          0          0
  dps              :       0.00       0.00          0          0          0
  dualval          :       0.00       0.00          0          0          0
  farkasdiving     :       0.00       0.00          0          0          0
  feaspump         :       0.00       0.00          1          0          0
  fixandinfer      :       0.00       0.00          0          0          0
  fracdiving       :       0.00       0.00          5          0          0
  gins             :       0.00       0.00          0          0          0
  guideddiving     :       0.00       0.00          2          0          0
  indicator        :       0.00       0.00          0          0          0
  indicatordiving  :       0.00       0.00          0          0          0
  intdiving        :       0.00       0.00          0          0          0
  intshifting      :       0.00       0.00          1          0          0
  linesearchdiving :       0.00       0.00          3          0          0
  localbranching   :       0.00       0.00          0          0          0
  locks            :       0.01       0.00          1          0          0
  lpface           :       0.00       0.00          0          0          0
  mpec             :       7.94       0.00          1          1          1
  multistart       :       0.00       0.00          0          0          0
  mutation         :       0.00       0.00          0          0          0
  nlpdiving        :       0.00       0.00          0          0          0
  objpscostdiving  :       0.00       0.00          0          0          0
  octane           :       0.00       0.00          0          0          0
  ofins            :       0.00       0.00          0          0          0
  oneopt           :       0.00       0.00          4          0          0
  padm             :       0.00       0.00          0          0          0
  proximity        :       0.00       0.00          0          0          0
  pscostdiving     :       0.00       0.00          0          0          0
  randrounding     :       0.13       0.00         67          0          0
  rens             :       0.00       0.00          0          0          0
  reoptsols        :       0.00       0.00          0          0          0
  repair           :       0.00       0.00          0          0          0
  rins             :       0.00       0.00          0          0          0
  rootsoldiving    :       0.00       0.00          0          0          0
  rounding         :       0.00       0.00         70          0          0
  shiftandpropagate:       0.01       0.00          1          0          0
  shifting         :       0.01       0.00         67          0          0
  simplerounding   :       0.00       0.00          0          0          0
  subnlp           :       2.34       0.00          2          0          0
  trivial          :       0.00       0.00          2          0          0
  trivialnegation  :       0.00       0.00          0          0          0
  trustregion      :       0.00       0.00          0          0          0
  trysol           :       0.00       0.00          0          0          0
  twoopt           :       0.00       0.00          0          0          0
  undercover       :       0.04       0.00          1          0          0
  vbounds          :       0.00       0.00          0          0          0
  veclendiving     :       0.00       0.00          3          0          0
  zeroobj          :       0.00       0.00          0          0          0
  zirounding       :       0.00       0.00          2          0          0
  other solutions  :          -          -          -          0          -
Expressions        :   #IntEval  IntEvalTi   #RevProp  RevPropTi    DomReds    Cutoffs  #Estimate  EstimTime  Branching  #Simplify SimplifyTi Simplified
  abs              :        423       0.00          8       0.00          0          0          2       0.00          0          6       0.00          0
  log              :      11553       0.00        492       0.00         71          0          2       0.00          0       1232       0.00          0
  pow              :      13730       0.00        359       0.00        277          0      25975       0.00        265       2823       0.00        692
  prod             :      63426       0.01       2867       0.00        730          0      34579       0.09       8389       2294       0.00       1299
  sum              :     117375       0.03      78225       0.03      35750          1        288       0.00          0       5227       0.01       1005
  val              :          0       0.00          0       0.00          0          0          0       0.00          0          0       0.00          0
  var              :     101519       0.01          0       0.00          0          0          0       0.00          0       3729       0.00        445
  varidx           :          0       0.00          0       0.00          0          0          0       0.00          0          0       0.00          0
Nlhdlrs            :    Detects  DetectAll DetectTime   #IntEval  IntEvalTi   #RevProp  RevPropTi    DomReds    Cutoffs   #Enforce   EnfoTime       Cuts  Branching
  soc              :          0          0       0.00          0       0.00          0       0.00          0          0          0       0.00          0          0
  convex           :         27         27       0.00          0       0.00          0       0.00          0          0        261       0.00        232          0
  concave          :         27         27       0.00          0       0.00          0       0.00          0          0      22767       0.02        121          0
  signomial        :        152        152       0.00          0       0.00          0       0.00          0          0      75472       3.30       2338          0
  quotient         :         12         12       0.00          0       0.00          0       0.00          0          0      10974       0.01        742          0
  quadratic        :         11        679       0.01       4835       0.01       4204       0.01       1835          0          0       0.00          0          0
  default          :        815      42222       0.00     194393       0.05      83114       0.10      36828          3      60659       0.16       7038          0
  bilinear         :        152        152       0.00      35823       0.00       1575       0.00          0          0      27547       0.00          1          0
  perspective      :          4          4       0.00          0       0.00          0       0.00          0          0        683       0.00         92          0
LP                 :       Time      Calls Iterations  Iter/call   Iter/sec  Time-0-It Calls-0-It    ItLimit
  primal LP        :       0.10         34          0       0.00       0.00       0.10         34
  dual LP          :       0.59        308       3436      12.45    5841.66       0.05         32
  lex dual LP      :       0.00          0          0       0.00          -
  barrier LP       :       0.00          0          0       0.00          -       0.00          0
  resolve instable :       0.00          0          0       0.00          -
  diving/probing LP:       2.34        491      12603      25.67    5392.73
  strong branching :       0.01          2         50      25.00          -          -          -          0
    (at root node) :          -          2         50      25.00          -
  conflict analysis:       0.00          0          0       0.00          -
NLP relaxation     :
  solve time       :       0.00 (0 calls)
  convexity        :  nonconvex (104 linear rows, 0 convex ineq., 0 nonconvex ineq., 282 nonlinear eq. or two-sided ineq.)
NLP Solvers        :  #Problems  ProblemTi    #Solves  SolveTime      #Iter  Time/Iter      #Okay #TimeLimit #IterLimit #LObjLimit #Interrupt  #NumError #EvalError  #OutOfMem #LicenseEr #OtherTerm   #GlobOpt    #LocOpt  #Feasible #LocInfeas #GlobInfea #Unbounded   #Unknown
  ipopt            :          6       0.01         13      10.33        820       0.01         11          0          0          0          0          2          0          0          0          0          0          7          6          0          0          0          0
B&B Tree           :
  number of runs   :          1
  nodes            :         56 (33 internal, 23 leaves)
  feasible leaves  :          3
  infeas. leaves   :          7
  objective leaves :         13
  nodes (total)    :         56 (33 internal, 23 leaves)
  nodes left       :          0
  max depth        :         10
  max depth (total):         10
  backtracks       :         23 (41.1%)
  early backtracks :          0 (0.0%)
  nodes exc. ref.  :          0 (0.0%)
  delayed cutoffs  :          0
  repropagations   :          1 (0 domain reductions, 0 cutoffs)
  avg switch length:       3.14
  switching time   :       0.10
Root Node          :
  First LP value   : -8.50500808570315e-01
  First LP Iters   :        303 (28799.54 Iter/sec)
  First LP Time    :       0.01
  Final Dual Bound : -7.45130471602995e-01
  Final Root Iters :       1247
  Root LP Estimate : -7.43735019658466e-01
Solution           :
  Solutions found  :          4 (4 improvements)
  First Solution   : -7.33108862330486e-01   (in run 1, after 1 nodes, 16.92 seconds, depth 0, found by <mpec>)
  Gap First Sol.   :       1.65 %
  Gap Last Sol.    :       0.00 %
  Primal Bound     : -7.33260029135085e-01   (in run 1, after 43 nodes, 17.92 seconds, depth 9, found by <relaxation>)
  Dual Bound       : -7.33260029135085e-01
  Gap              :       0.00 %
Integrals          :      Total       Avg%
  primal-dual      :    1692.84      93.83
  primal-ref       :          -          - (not evaluated)
  dual-ref         :          -          - (not evaluated)
